
GUB cover cuts applied:  3
Clique cuts applied:  10
Cover cuts applied:  76
Implied bound cuts applied:  573
Flow cuts applied:  9
Mixed integer rounding cuts applied:  80
Zero-half cuts applied:  74
Lift and project cuts applied:  4
Gomory fractional cuts applied:  5

Root node processing (before b&c):
  Real time             =    0.37 sec. (241.36 ticks)
Parallel b&c, 4 threads:
  Real time             =    2.94 sec. (1894.06 ticks)
  Sync time (average)   =    0.29 sec.
  Wait time (average)   =    0.00 sec.
                          ------------
Total (root+branch&cut) =    3.31 sec. (2135.42 ticks)
Version identifier: 12.10.0.0 | 2019-11-26 | 843d4de
CPXPARAM_MIP_Interval                            10
CPXPARAM_MIP_Tolerances_AbsMIPGap                0.98999999999999999
Tried aggregator 2 times.
MIP Presolve eliminated 2574 rows and 1224 columns.
MIP Presolve added 4 rows and 0 columns.
MIP Presolve modified 112 coefficients.
Aggregator did 11 substitutions.
Reduced MIP has 1229 rows, 168 columns, and 2702 nonzeros.
Reduced MIP has 133 binaries, 35 generals, 0 SOSs, and 0 indicators.
Presolve time = 0.00 sec. (4.60 ticks)
Found incumbent of value 4.000000 after 0.01 sec. (7.24 ticks)
Probing fixed 0 vars, tightened 6 bounds.
Probing time = 0.00 sec. (0.53 ticks)
Cover probing fixed 0 vars, tightened 24 bounds.
Tried aggregator 1 time.
Detecting symmetries...
MIP Presolve eliminated 920 rows and 0 columns.
MIP Presolve modified 21 coefficients.
Reduced MIP has 309 rows, 168 columns, and 862 nonzeros.
Reduced MIP has 133 binaries, 35 generals, 0 SOSs, and 0 indicators.
Presolve time = 0.00 sec. (1.09 ticks)
Probing fixed 0 vars, tightened 6 bounds.
Probing time = 0.00 sec. (0.18 ticks)
Cover probing fixed 0 vars, tightened 21 bounds.
Clique table members: 217.
MIP emphasis: balance optimality and feasibility.
MIP search method: dynamic search.
Parallel mode: deterministic, using up to 4 threads.
Root relaxation solution time = 0.00 sec. (0.76 ticks)

        Nodes                                         Cuts/
   Node  Left     Objective  IInf  Best Integer    Best Bound    ItCnt     Gap

*     0+    0                            4.0000       36.0000           800.00%
*     0+    0                           17.0000       36.0000           111.76%
      0     0       23.3333    68       17.0000       23.3333      115   37.25%
      0     0       23.3333    68       17.0000      Cuts: 51      182   37.25%
      0     0       23.3333    68       17.0000      Cuts: 59      252   37.25%
      0     0       23.3333    68       17.0000       Cuts: 8      307   37.25%
      0     0       23.3333    68       17.0000      Cuts: 72      377   37.25%
*     0+    0                           21.0000       23.3333            11.11%
*     0+    0                           22.0000       23.3333             6.06%
      0     0        cutoff             22.0000       23.3333      377    6.06%
Detecting symmetries...
      0     2       23.3333    38       22.0000       23.3333      377    6.06%
Elapsed time = 0.05 sec. (35.98 ticks, tree = 0.02 MB, solutions = 4)
     10     8       23.3333     2       22.0000       23.3333      607    6.06%
     20     9       23.1667    48       22.0000       23.3333      955    6.06%
     30     7        cutoff             22.0000       23.3333     1062    6.06%
     40     7        cutoff             22.0000       23.3333     1468    6.06%
     50     3       23.3333    38       22.0000       23.3333     1750    6.06%
     60     3        cutoff             22.0000       23.3333     1988    6.06%
the number of Nodes = 63
